45 4987 3921 
1 1
4 1
5 1
6 1
10 1
12 1
13 1
14 1
15 1
16 1
17 1
18 1
19 1
22 1
25 1
30 1
32 1
35 1
36 1
39 1
44 1
45 1
47 1
48 1
50 1
55 1
61 1
62 1
64 1
66 1
67 1
75 1
76 1
79 1
80 1
85 1
93 1
95 1
96 1
97 1
99 1
101 1
106 1
110 1
112 1
